<?xml version = "1.0" encoding="UTF-8" standalone="yes"?>
<CPLEXSolution version="1.2">
 <header
   problemName="../models/pnasnet-mobile/redmi/ilp/subgraphs-cell_0.lp"
   solutionName="incumbent"
   solutionIndex="-1"
   objectiveValue="15.460398995999769"
   solutionTypeValue="3"
   solutionTypeString="primal"
   solutionStatusValue="101"
   solutionStatusString="integer optimal solution"
   solutionMethodString="mip"
   primalFeasible="1"
   dualFeasible="1"
   MIPNodes="497"
   MIPIterations="1988"
   writeLevel="1"/>
 <quality
   epInt="1.0000000000000001e-05"
   epRHS="9.9999999999999995e-07"
   maxIntInfeas="2.0000001654807422e-12"
   maxPrimalInfeas="9.999894245993346e-10"
   maxX="1009.2199869959998"
   maxSlack="3006.9184849980002"/>
 <linearConstraints>
  <constraint name="c1" index="0" slack="-1015.4603989959998"/>
  <constraint name="c2" index="1" slack="-2.4840219979997755"/>
  <constraint name="c3" index="2" slack="-15.460398995999769"/>
  <constraint name="c4" index="3" slack="-999.11846199799982"/>
  <constraint name="c5" index="4" slack="-15.460398995999769"/>
  <constraint name="c6" index="5" slack="-1012.0006869959998"/>
  <constraint name="c7" index="6" slack="-1015.4603989959998"/>
  <constraint name="c8" index="7" slack="-7.3187549959997114"/>
  <constraint name="c9" index="8" slack="-1015.4603989959998"/>
  <constraint name="c10" index="9" slack="-11.848698995999712"/>
  <constraint name="c11" index="10" slack="-15.460398995999769"/>
  <constraint name="c12" index="11" slack="-1005.4393549959998"/>
  <constraint name="c13" index="12" slack="-1015.4603989959998"/>
  <constraint name="c14" index="13" slack="-10.508988995999744"/>
  <constraint name="c15" index="14" slack="-15.460398995999769"/>
  <constraint name="c16" index="15" slack="-1006.2623649959997"/>
  <constraint name="c17" index="16" slack="-1015.4603989959998"/>
  <constraint name="c18" index="17" slack="-1.2885009989997798"/>
  <constraint name="c19" index="18" slack="-15.460398995999769"/>
  <constraint name="c20" index="19" slack="-1000.3085359979998"/>
  <constraint name="c21" index="20" slack="-1015.4603989959998"/>
  <constraint name="c22" index="21" slack="3.4106051316484809e-13"/>
  <constraint name="c23" index="22" slack="-15.460398995999769"/>
  <constraint name="c24" index="23" slack="0"/>
  <constraint name="c25" index="24" slack="-1015.4603989959998"/>
  <constraint name="c26" index="25" slack="-4.6833219979997693"/>
  <constraint name="c27" index="26" slack="-15.460398995999769"/>
  <constraint name="c28" index="27" slack="-992.85125299599974"/>
  <constraint name="c29" index="28" slack="-1015.4603989959998"/>
  <constraint name="c30" index="29" slack="-14.270698995999737"/>
  <constraint name="c31" index="30" slack="-15.460398995999769"/>
  <constraint name="c32" index="31" slack="-1011.6018069959997"/>
  <constraint name="c33" index="32" slack="0"/>
  <constraint name="c34" index="33" slack="0"/>
  <constraint name="c35" index="34" slack="0"/>
  <constraint name="c36" index="35" slack="0"/>
  <constraint name="c37" index="36" slack="0"/>
  <constraint name="c38" index="37" slack="0"/>
  <constraint name="c39" index="38" slack="0"/>
  <constraint name="c40" index="39" slack="0"/>
  <constraint name="c41" index="40" slack="-999"/>
  <constraint name="c42" index="41" slack="0"/>
  <constraint name="c43" index="42" slack="-2007.3173649979999"/>
  <constraint name="c44" index="43" slack="-999"/>
  <constraint name="c45" index="44" slack="0"/>
  <constraint name="c46" index="45" slack="-3002.6354329979999"/>
  <constraint name="c47" index="46" slack="0"/>
  <constraint name="c48" index="47" slack="-999"/>
  <constraint name="c49" index="48" slack="-7.1653769979999424"/>
  <constraint name="c50" index="49" slack="-998"/>
  <constraint name="c51" index="50" slack="-1"/>
  <constraint name="c52" index="51" slack="-3000.7560329979997"/>
  <constraint name="c53" index="52" slack="0"/>
  <constraint name="c54" index="53" slack="-999"/>
  <constraint name="c55" index="54" slack="-5.8256669979999742"/>
  <constraint name="c56" index="55" slack="-998"/>
  <constraint name="c57" index="56" slack="-1"/>
  <constraint name="c58" index="57" slack="-3001.5790429979997"/>
  <constraint name="c59" index="58" slack="0"/>
  <constraint name="c60" index="59" slack="-999"/>
  <constraint name="c61" index="60" slack="-996.60517900000002"/>
  <constraint name="c62" index="61" slack="-998"/>
  <constraint name="c63" index="62" slack="-1"/>
  <constraint name="c64" index="63" slack="-2995.6252140000001"/>
  <constraint name="c65" index="64" slack="-1.1955209980000063"/>
  <constraint name="c66" index="65" slack="-997.82996099800005"/>
  <constraint name="c67" index="66" slack="-996.24360999799978"/>
  <constraint name="c68" index="67" slack="-1992.8780499979998"/>
  <constraint name="c69" index="68" slack="0"/>
  <constraint name="c70" index="69" slack="-988.16793099799997"/>
  <constraint name="c71" index="70" slack="0"/>
  <constraint name="c72" index="71" slack="-988.16793099799997"/>
  <constraint name="c73" index="72" slack="0"/>
  <constraint name="c74" index="73" slack="-999"/>
  <constraint name="c75" index="74" slack="-9.5873769979999679"/>
  <constraint name="c76" index="75" slack="-998"/>
  <constraint name="c77" index="76" slack="-1"/>
  <constraint name="c78" index="77" slack="-3006.9184849980002"/>
  <constraint name="c79" index="78" slack="-999"/>
  <constraint name="c80" index="79" slack="0"/>
  <constraint name="c81" index="80" slack="-2988.2133230019999"/>
  <constraint name="c82" index="81" slack="-999"/>
  <constraint name="c83" index="82" slack="0"/>
  <constraint name="c84" index="83" slack="-1984.8477630020002"/>
  <constraint name="c85" index="84" slack="-999"/>
  <constraint name="c86" index="85" slack="0"/>
  <constraint name="c87" index="86" slack="-2997.578"/>
  <constraint name="c88" index="87" slack="-999"/>
  <constraint name="c89" index="88" slack="0"/>
  <constraint name="c90" index="89" slack="-2991.1686559999998"/>
  <constraint name="c91" index="90" slack="-999"/>
  <constraint name="c92" index="91" slack="0"/>
  <constraint name="c93" index="92" slack="-2996.2382900000002"/>
  <constraint name="c94" index="93" slack="-999"/>
  <constraint name="c95" index="94" slack="0"/>
  <constraint name="c96" index="95" slack="-2991.9916659999999"/>
  <constraint name="c97" index="96" slack="-999"/>
  <constraint name="c98" index="97" slack="0"/>
  <constraint name="c99" index="98" slack="-2987.0178020029998"/>
  <constraint name="c100" index="99" slack="-999"/>
  <constraint name="c101" index="100" slack="0"/>
  <constraint name="c102" index="101" slack="-2986.0378370020003"/>
  <constraint name="c103" index="102" slack="-1010.7121859959999"/>
  <constraint name="c104" index="103" slack="-6.0302539959999422"/>
  <constraint name="c105" index="104" slack="-2005.7602749959997"/>
  <constraint name="c106" index="105" slack="-1001.0783429959997"/>
  <constraint name="c107" index="106" slack="-999"/>
  <constraint name="c108" index="107" slack="0"/>
  <constraint name="c109" index="108" slack="-2990.4126230020001"/>
  <constraint name="c110" index="109" slack="-999"/>
  <constraint name="c111" index="110" slack="0"/>
  <constraint name="c112" index="111" slack="-2978.5805540000001"/>
  <constraint name="c113" index="112" slack="0"/>
  <constraint name="c114" index="113" slack="-997.33110799999997"/>
  <constraint name="c115" index="114" slack="0"/>
  <constraint name="c116" index="115" slack="-997.33110799999997"/>
  <constraint name="c117" index="116" slack="0"/>
  <constraint name="c118" index="117" slack="-999"/>
  <constraint name="c119" index="118" slack="-988.21332300200004"/>
  <constraint name="c120" index="119" slack="-998"/>
  <constraint name="c121" index="120" slack="-1"/>
  <constraint name="c122" index="121" slack="-1984.8477630020002"/>
  <constraint name="c123" index="122" slack="-999"/>
  <constraint name="c124" index="123" slack="0"/>
  <constraint name="c125" index="124" slack="-1997.729988"/>
  <constraint name="c126" index="125" slack="-999"/>
  <constraint name="c127" index="126" slack="0"/>
  <constraint name="c128" index="127" slack="-1993.0480560000001"/>
  <constraint name="c129" index="128" slack="0"/>
  <constraint name="c130" index="129" slack="-993.59065600000008"/>
  <constraint name="c131" index="130" slack="0"/>
  <constraint name="c132" index="131" slack="-993.59065600000008"/>
  <constraint name="c133" index="132" slack="0"/>
  <constraint name="c134" index="133" slack="-999"/>
  <constraint name="c135" index="134" slack="-987.01780200300004"/>
  <constraint name="c136" index="135" slack="-998"/>
  <constraint name="c137" index="136" slack="-1"/>
  <constraint name="c138" index="137" slack="-2986.0378370020003"/>
  <constraint name="c139" index="138" slack="-10.560197995999943"/>
  <constraint name="c140" index="139" slack="-1004.150853996"/>
  <constraint name="c141" index="140" slack="-1005.6082869959997"/>
  <constraint name="c142" index="141" slack="-1999.1989429959999"/>
  <constraint name="c143" index="142" slack="0"/>
  <constraint name="c144" index="143" slack="-999"/>
  <constraint name="c145" index="144" slack="-990.41262300200003"/>
  <constraint name="c146" index="145" slack="-998"/>
  <constraint name="c147" index="146" slack="-1"/>
  <constraint name="c148" index="147" slack="-2978.5805540000001"/>
  <constraint name="c149" index="148" slack="0"/>
  <constraint name="c150" index="149" slack="-997.33110799999997"/>
  <constraint name="c151" index="150" slack="0"/>
  <constraint name="c152" index="151" slack="-997.33110799999997"/>
  <constraint name="c153" index="152" slack="0"/>
  <constraint name="c154" index="153" slack="-999"/>
  <constraint name="c155" index="154" slack="-990.63532300200006"/>
  <constraint name="c156" index="155" slack="-998"/>
  <constraint name="c157" index="156" slack="-1"/>
  <constraint name="c158" index="157" slack="-1987.2697630020002"/>
  <constraint name="c159" index="158" slack="-999"/>
  <constraint name="c160" index="159" slack="0"/>
  <constraint name="c161" index="160" slack="-2000.1519880000001"/>
  <constraint name="c162" index="161" slack="-999"/>
  <constraint name="c163" index="162" slack="0"/>
  <constraint name="c164" index="163" slack="-1995.4700560000001"/>
  <constraint name="c165" index="164" slack="0"/>
  <constraint name="c166" index="165" slack="-999"/>
  <constraint name="c167" index="166" slack="-989.43980200300007"/>
  <constraint name="c168" index="167" slack="-998"/>
  <constraint name="c169" index="168" slack="-1"/>
  <constraint name="c170" index="169" slack="-2988.4598370020003"/>
  <constraint name="c171" index="170" slack="-9.2204879959999744"/>
  <constraint name="c172" index="171" slack="-1004.9738639959999"/>
  <constraint name="c173" index="172" slack="-1004.2685769959998"/>
  <constraint name="c174" index="173" slack="-2000.0219529959998"/>
  <constraint name="c175" index="174" slack="0"/>
  <constraint name="c176" index="175" slack="-999"/>
  <constraint name="c177" index="176" slack="-992.83462300000008"/>
  <constraint name="c178" index="177" slack="-998"/>
  <constraint name="c179" index="178" slack="-1"/>
  <constraint name="c180" index="179" slack="-2981.0025540000001"/>
  <constraint name="c181" index="180" slack="-2.4220000000000255"/>
  <constraint name="c182" index="181" slack="-999.753108"/>
  <constraint name="c183" index="182" slack="-2.4220000000000255"/>
  <constraint name="c184" index="183" slack="-999.753108"/>
  <constraint name="c185" index="184" slack="0"/>
  <constraint name="c186" index="185" slack="-999"/>
  <constraint name="c187" index="186" slack="-8.8817841970012523e-16"/>
  <constraint name="c188" index="187" slack="-998"/>
  <constraint name="c189" index="188" slack="-1"/>
  <constraint name="c190" index="189" slack="-1994.43514"/>
  <constraint name="c191" index="190" slack="-999"/>
  <constraint name="c192" index="191" slack="0"/>
  <constraint name="c193" index="192" slack="-2009.5166649969999"/>
  <constraint name="c194" index="193" slack="-999"/>
  <constraint name="c195" index="194" slack="0"/>
  <constraint name="c196" index="195" slack="-2002.6354329980002"/>
  <constraint name="c197" index="196" slack="0"/>
  <constraint name="c198" index="197" slack="-999"/>
  <constraint name="c199" index="198" slack="-9.3646769969999788"/>
  <constraint name="c200" index="199" slack="-998"/>
  <constraint name="c201" index="200" slack="-1"/>
  <constraint name="c202" index="201" slack="-2000.7560329979999"/>
  <constraint name="c203" index="202" slack="0"/>
  <constraint name="c204" index="203" slack="-999"/>
  <constraint name="c205" index="204" slack="-8.0249669969999555"/>
  <constraint name="c206" index="205" slack="-998"/>
  <constraint name="c207" index="206" slack="-1"/>
  <constraint name="c208" index="207" slack="-2001.5790429979997"/>
  <constraint name="c209" index="208" slack="9.999894245993346e-10"/>
  <constraint name="c210" index="209" slack="-999.02003499800003"/>
  <constraint name="c211" index="210" slack="-995.04808899899979"/>
  <constraint name="c212" index="211" slack="-1994.0681239979999"/>
  <constraint name="c213" index="212" slack="-2.1992999990000044"/>
  <constraint name="c214" index="213" slack="-990.36723099699998"/>
  <constraint name="c215" index="214" slack="0"/>
  <constraint name="c216" index="215" slack="-988.16793099799997"/>
  <constraint name="c217" index="216" slack="-11.786676996999972"/>
  <constraint name="c218" index="217" slack="-1009.1177849969999"/>
  <constraint name="c219" index="218" slack="-9.5873769979999679"/>
  <constraint name="c220" index="219" slack="-1006.9184849979999"/>
  <constraint name="c221" index="220" slack="-999"/>
  <constraint name="c222" index="221" slack="0"/>
  <constraint name="c223" index="222" slack="-2001.4916979980001"/>
  <constraint name="c224" index="223" slack="-999"/>
  <constraint name="c225" index="224" slack="0"/>
  <constraint name="c226" index="225" slack="-1991.8583560000002"/>
  <constraint name="c227" index="226" slack="0"/>
  <constraint name="c228" index="227" slack="-999"/>
  <constraint name="c229" index="228" slack="-1.3397099980000253"/>
  <constraint name="c230" index="229" slack="-998"/>
  <constraint name="c231" index="230" slack="-1"/>
  <constraint name="c232" index="231" slack="-1989.9789560000002"/>
  <constraint name="c233" index="232" slack="0"/>
  <constraint name="c234" index="233" slack="-999"/>
  <constraint name="c235" index="234" slack="-2.2204460492503131e-16"/>
  <constraint name="c236" index="235" slack="-998"/>
  <constraint name="c237" index="236" slack="-1"/>
  <constraint name="c238" index="237" slack="-1990.8019659999998"/>
  <constraint name="c239" index="238" slack="0"/>
  <constraint name="c240" index="239" slack="-999"/>
  <constraint name="c241" index="240" slack="-3.7617099980000148"/>
  <constraint name="c242" index="241" slack="-998"/>
  <constraint name="c243" index="242" slack="-1"/>
  <constraint name="c244" index="243" slack="-2996.141408"/>
  <constraint name="c245" index="244" slack="0"/>
  <constraint name="c246" index="245" slack="-999"/>
  <constraint name="c247" index="246" slack="-987.02362300200002"/>
  <constraint name="c248" index="247" slack="-998"/>
  <constraint name="c249" index="248" slack="-1"/>
  <constraint name="c250" index="249" slack="-1983.6580630020001"/>
  <constraint name="c251" index="250" slack="0"/>
  <constraint name="c252" index="251" slack="-999"/>
  <constraint name="c253" index="252" slack="-989.22292300200002"/>
  <constraint name="c254" index="253" slack="-998"/>
  <constraint name="c255" index="254" slack="-1"/>
  <constraint name="c256" index="255" slack="-1977.390854"/>
 </linearConstraints>
 <variables>
  <variable name="tt" index="0" value="15.460398995999769"/>
  <variable name="s_1_1" index="1" value="1"/>
  <variable name="t_1_1" index="2" value="10.777076997999995"/>
  <variable name="s_1_7" index="3" value="1"/>
  <variable name="s_2_1" index="4" value="0"/>
  <variable name="t_2_1" index="5" value="10.777076997999973"/>
  <variable name="s_2_7" index="6" value="0"/>
  <variable name="s_1_2" index="7" value="0"/>
  <variable name="t_1_2" index="8" value="1.1897000000000162"/>
  <variable name="s_1_8" index="9" value="1"/>
  <variable name="s_2_2" index="10" value="1"/>
  <variable name="t_2_2" index="11" value="1.1897000000000162"/>
  <variable name="s_2_8" index="12" value="0"/>
  <variable name="s_1_3" index="13" value="1"/>
  <variable name="t_1_3" index="14" value="1.1897000000000162"/>
  <variable name="s_2_3" index="15" value="0"/>
  <variable name="t_2_3" index="16" value="1.1897000000000162"/>
  <variable name="s_1_4" index="17" value="1"/>
  <variable name="t_1_4" index="18" value="3.6117000000000417"/>
  <variable name="s_2_4" index="19" value="0"/>
  <variable name="t_2_4" index="20" value="3.6117000000000932"/>
  <variable name="s_1_5" index="21" value="1"/>
  <variable name="t_1_5" index="22" value="12.976376996999996"/>
  <variable name="s_2_5" index="23" value="0"/>
  <variable name="t_2_5" index="24" value="10.777076997999973"/>
  <variable name="s_1_6" index="25" value="1"/>
  <variable name="t_1_6" index="26" value="14.171897995999938"/>
  <variable name="s_2_6" index="27" value="0"/>
  <variable name="t_2_6" index="28" value="1009.2199869959998"/>
  <variable name="t_1_7" index="29" value="4.9514099980000417"/>
  <variable name="t_2_7" index="30" value="0"/>
  <variable name="t_1_8" index="31" value="0"/>
  <variable name="t_2_8" index="32" value="0"/>
  <variable name="r_1_1_2" index="33" value="1"/>
  <variable name="u_1_1_2" index="34" value="1"/>
  <variable name="r_2_1_2" index="35" value="1"/>
  <variable name="u_2_1_2" index="36" value="0"/>
  <variable name="r_1_1_3" index="37" value="0"/>
  <variable name="u_1_1_3" index="38" value="1"/>
  <variable name="r_2_1_3" index="39" value="1"/>
  <variable name="u_2_1_3" index="40" value="0"/>
  <variable name="r_1_1_4" index="41" value="0"/>
  <variable name="u_1_1_4" index="42" value="1"/>
  <variable name="r_2_1_4" index="43" value="1"/>
  <variable name="u_2_1_4" index="44" value="0"/>
  <variable name="r_1_1_5" index="45" value="0"/>
  <variable name="u_1_1_5" index="46" value="1.0000000827403711e-12"/>
  <variable name="r_2_1_5" index="47" value="1"/>
  <variable name="u_2_1_5" index="48" value="0"/>
  <variable name="r_1_1_8" index="49" value="0"/>
  <variable name="u_1_1_8" index="50" value="1"/>
  <variable name="r_2_1_8" index="51" value="1"/>
  <variable name="u_2_1_8" index="52" value="0"/>
  <variable name="r_1_2_3" index="53" value="1"/>
  <variable name="u_1_2_3" index="54" value="0"/>
  <variable name="r_2_2_3" index="55" value="1"/>
  <variable name="u_2_2_3" index="56" value="0"/>
  <variable name="r_1_2_4" index="57" value="1"/>
  <variable name="u_1_2_4" index="58" value="0"/>
  <variable name="r_2_2_4" index="59" value="1"/>
  <variable name="u_2_2_4" index="60" value="0"/>
  <variable name="r_1_2_5" index="61" value="1"/>
  <variable name="u_1_2_5" index="62" value="0"/>
  <variable name="r_2_2_5" index="63" value="1"/>
  <variable name="u_2_2_5" index="64" value="0"/>
  <variable name="r_1_2_7" index="65" value="1"/>
  <variable name="u_1_2_7" index="66" value="0"/>
  <variable name="r_2_2_7" index="67" value="1"/>
  <variable name="u_2_2_7" index="68" value="0"/>
  <variable name="r_1_3_5" index="69" value="0"/>
  <variable name="u_1_3_5" index="70" value="0"/>
  <variable name="r_2_3_5" index="71" value="1"/>
  <variable name="u_2_3_5" index="72" value="0"/>
  <variable name="r_1_3_7" index="73" value="0"/>
  <variable name="u_1_3_7" index="74" value="0"/>
  <variable name="r_2_3_7" index="75" value="1"/>
  <variable name="u_2_3_7" index="76" value="0"/>
  <variable name="r_1_4_5" index="77" value="0"/>
  <variable name="u_1_4_5" index="78" value="0"/>
  <variable name="r_2_4_5" index="79" value="1"/>
  <variable name="u_2_4_5" index="80" value="0"/>
  <variable name="r_1_4_7" index="81" value="0"/>
  <variable name="u_1_4_7" index="82" value="2.0000001654807422e-12"/>
  <variable name="r_2_4_7" index="83" value="1"/>
  <variable name="u_2_4_7" index="84" value="0"/>
  <variable name="r_1_7_8" index="85" value="0"/>
  <variable name="u_1_7_8" index="86" value="1"/>
  <variable name="r_2_7_8" index="87" value="1"/>
  <variable name="u_2_7_8" index="88" value="0"/>
 </variables>
</CPLEXSolution>
